
  22   10
  10   10   10   10   10   10   10   10   10   10

   0   0   0   0   0   0   0   0   0   0   0   1 2 
   2   0   0  10   0   0   0   0   0   0   0   1 3 
   7   0   0   0   0   0   0  10   0   0   0   1 4 
   6   0  10   0   0   0   0   0   0   0   0   1 5 
   3   0   0   0   0   0   0  10   0   0   0   1 6 
   4   0   0   0   0   0   0   0   0   0  10   1 7 
   3  10   0   0   0   0   0   0   0   0   0   1 8 
   1   0   0   0   0   0   0  10   0   0   0   1 9 
   7   0  10   0   0   0   0   0   0   0   0   2 21 10 
   5   0   0   0   0   0   0   0  10   0   0   1 11 
   3   0   0   0   0   0   0   0  10   0   0   2 19 12 
   2  10   0   0   0   0   0   0   0   0   0   1 13 
   4   0  10   0   0   0   0   0   0   0   0   1 14 
   5   0   0   0   0   0  10   0   0   0   0   1 15 
   7   0   0  10   0   0   0   0   0   0   0   1 16 
   3   0   0   0   0   0   0  10   0   0   0   1 17 
   6   0   0   0   0   0   0   0   0  10   0   1 18 
  10   0   0   0  10   0   0   0   0   0   0   1 20 
   6   0   0   0   0  10   0   0   0   0   0   1 20 
   1   0   0   0   0   0   0   0   0  10   0   1 22
   1   0   0   0   0   0   0   0   0  10   0   1 22
   0   0   0   0   0   0   0   0   0   0   0   0 
